
  22   10
  10   10   10   10   10   10   10   10   10   10

   0   0   0   0   0   0   0   0   0   0   0  15 2 3 4 5 6 7 13 14 15 16 17 18 19 20 21 
   6   0   0   0   0   0   0   0  10   0   0   4 12 10 9 8 
   4   0   0  10   0   0   0   0   0   0   0   3 10 9 8 
   8   0   0   0   0   0  10   0   0   0   0   1 11 
   8   0   0   0   0   0   0  10   0   0   0   1 9 
   1   0   0   0  10   0   0   0   0   0   0   1 8 
   9   0   0   0   0   0   0   0   0  10   0   1 8 
   9   0  10   0   0   0   0   0   0   0   0   1 22
   2  10   0   0   0   0   0   0   0   0   0   1 22
   8   0   0   0   0   0   0  10   0   0   0   1 22
   3   0   0  10   0   0   0   0   0   0   0   1 22
  10   0   0   0   0  10   0   0   0   0   0   1 22
   2   0   0   0   0   0   0  10   0   0   0   1 22
   8   0   0   0  10   0   0   0   0   0   0   1 22
  10   0   0   0   0   0   0  10   0   0   0   1 22
   8   0  10   0   0   0   0   0   0   0   0   1 22
   7   0   0   0   0   0  10   0   0   0   0   1 22
   6   0   0   0  10   0   0   0   0   0   0   1 22
   2   0   0  10   0   0   0   0   0   0   0   1 22
   1   0   0   0   0   0   0   0   0  10   0   1 22
  10   0   0   0   0   0   0   0  10   0   0   1 22
   0   0   0   0   0   0   0   0   0   0   0   0 
